c Arquivo convertido de bcsstk22.mtx
p edge 138 279
e 1 3
e 1 5
e 2 4
e 3 5
e 4 5
e 4 6
e 4 41
e 5 7
e 5 41
e 6 8
e 6 116
e 6 117
e 7 9
e 8 10
e 9 11
e 10 11
e 10 12
e 10 67
e 10 68
e 10 69
e 11 13
e 11 67
e 11 68
e 11 69
e 12 13
e 12 17
e 13 14
e 13 15
e 13 17
e 14 15
e 16 43
e 17 18
e 17 44
e 17 45
e 18 44
e 18 45
e 19 64
e 20 21
e 20 24
e 20 25
e 20 65
e 20 66
e 21 25
e 21 65
e 21 66
e 22 23
e 22 25
e 23 25
e 24 25
e 24 26
e 25 27
e 26 28
e 26 88
e 26 89
e 26 90
e 27 29
e 28 30
e 29 31
e 30 32
e 30 137
e 30 138
e 31 33
e 32 33
e 32 35
e 32 38
e 33 34
e 33 36
e 33 38
e 34 36
e 37 112
e 38 39
e 38 113
e 38 114
e 39 113
e 39 114
e 40 91
e 41 42
e 41 92
e 41 93
e 42 92
e 42 93
e 43 46
e 44 45
e 44 47
e 44 48
e 44 68
e 45 47
e 45 48
e 45 69
e 46 49
e 47 50
e 47 51
e 47 71
e 48 50
e 48 51
e 48 72
e 49 52
e 50 51
e 50 53
e 50 54
e 50 74
e 51 53
e 51 54
e 51 75
e 52 55
e 53 54
e 53 56
e 53 57
e 53 77
e 54 56
e 54 57
e 54 78
e 55 58
e 56 57
e 56 59
e 56 60
e 56 80
e 57 59
e 57 60
e 57 81
e 58 61
e 59 60
e 59 62
e 59 63
e 59 83
e 60 62
e 60 63
e 60 84
e 61 64
e 62 63
e 62 65
e 62 66
e 62 86
e 63 65
e 63 66
e 63 87
e 65 66
e 65 89
e 66 90
e 67 68
e 67 69
e 67 70
e 68 69
e 68 71
e 68 72
e 69 71
e 69 72
e 70 73
e 71 72
e 71 74
e 71 75
e 72 74
e 72 75
e 73 76
e 74 75
e 74 77
e 74 78
e 75 77
e 75 78
e 76 79
e 77 78
e 77 80
e 77 81
e 78 80
e 78 81
e 79 82
e 80 81
e 80 83
e 80 84
e 81 83
e 81 84
e 82 85
e 83 84
e 83 86
e 83 87
e 84 86
e 84 87
e 85 88
e 86 87
e 86 89
e 86 90
e 87 89
e 87 90
e 88 89
e 88 90
e 89 90
e 91 94
e 92 93
e 92 95
e 92 96
e 92 116
e 93 95
e 93 96
e 94 97
e 95 98
e 95 99
e 95 119
e 96 98
e 96 99
e 97 100
e 98 99
e 98 101
e 98 102
e 98 122
e 99 101
e 99 102
e 100 103
e 101 102
e 101 104
e 101 105
e 101 125
e 102 104
e 102 105
e 103 106
e 104 105
e 104 107
e 104 108
e 104 128
e 105 107
e 105 108
e 106 109
e 107 108
e 107 110
e 107 111
e 107 131
e 108 110
e 108 111
e 109 112
e 110 111
e 110 113
e 110 114
e 110 134
e 111 113
e 111 114
e 113 114
e 113 137
e 115 118
e 116 117
e 116 119
e 116 120
e 117 119
e 117 120
e 118 121
e 119 120
e 119 122
e 119 123
e 120 122
e 120 123
e 121 124
e 122 123
e 122 125
e 122 126
e 123 125
e 123 126
e 124 127
e 125 126
e 125 128
e 125 129
e 126 128
e 126 129
e 127 130
e 128 129
e 128 131
e 128 132
e 129 131
e 129 132
e 130 133
e 131 132
e 131 134
e 131 135
e 132 134
e 132 135
e 133 136
e 134 135
e 134 137
e 134 138
e 135 137
e 135 138
e 137 138
